
Gurobi 11.0.0 (linux64) logging started Sun Mar 24 23:15:03 2024

Set parameter LogFile to value "gurobi_out/log/Mar_24_image_resize_100_8.log"
Gurobi Optimizer version 11.0.0 build v11.0.0rc2 (linux64 - "CentOS Linux 7 (Core)")

CPU model: Intel Xeon E3-12xx v2 (Ivy Bridge), instruction set [SSE2|AVX]
Thread count: 24 physical cores, 24 logical processors, using up to 24 threads

Optimize a model with 938 rows, 691 columns and 2356 nonzeros
Model fingerprint: 0x8407358e
Variable types: 491 continuous, 200 integer (100 binary)
Coefficient statistics:
  Matrix range     [1e+00, 1e+02]
  Objective range  [1e-05, 5e-01]
  Bounds range     [1e-03, 1e+00]
  RHS range        [1e-04, 8e+00]
Presolve removed 416 rows and 290 columns
Presolve time: 0.01s
Presolved: 522 rows, 401 columns, 1512 nonzeros
Variable types: 237 continuous, 164 integer (76 binary)

Root relaxation: objective 9.910407e-01, 333 iterations, 0.01 seconds (0.00 work units)

    Nodes    |    Current Node    |     Objective Bounds      |     Work
 Expl Unexpl |  Obj  Depth IntInf | Incumbent    BestBd   Gap | It/Node Time

     0     0    0.99104    0   67          -    0.99104      -     -    0s
H    0     0                       0.0004200    0.99103      -     -    0s
     0     0    0.99006    0   55    0.00042    0.99006      -     -    0s
H    0     0                       0.0004400    0.98999      -     -    0s
H    0     0                       0.4998200    0.98999  98.1%     -    0s
     0     0    0.98990    0   54    0.49982    0.98990  98.1%     -    0s
     0     0    0.98990    0   63    0.49982    0.98990  98.1%     -    0s
H    0     0                       0.7497200    0.98990  32.0%     -    0s
     0     0    0.98868    0   60    0.74972    0.98868  31.9%     -    0s
     0     0    0.98868    0   60    0.74972    0.98868  31.9%     -    0s
     0     2    0.98868    0   60    0.74972    0.98868  31.9%     -    0s
H  141    70                       0.7497200    0.98447  31.3%  23.5    0s
H  143    70                       0.7497300    0.98447  31.3%  23.6    0s

Cutting planes:
  Learned: 6
  Gomory: 19
  Implied bound: 23
  MIR: 35
  Inf proof: 1
  Network: 1
  RLT: 6

Explored 643 nodes (11882 simplex iterations) in 0.65 seconds (0.19 work units)
Thread count was 24 (of 24 available processors)

Solution count 6: 0.74973 0.74972 0.74972 ... 0.00042
No other solutions better than 0.74973

Optimal solution found (tolerance 1.00e-05)
Best objective 7.497300000000e-01, best bound 7.497300000000e-01, gap 0.0000%
Warning: linear constraint 203 and linear constraint 204 have the same name "PathConstr3_nopl"

Gurobi 11.0.0 (linux64) logging started Sun Mar 24 23:25:34 2024

Set parameter LogFile to value "gurobi_out/log/Mar_24_image_resize_100_8.log"
Gurobi Optimizer version 11.0.0 build v11.0.0rc2 (linux64 - "CentOS Linux 7 (Core)")

CPU model: Intel Xeon E3-12xx v2 (Ivy Bridge), instruction set [SSE2|AVX]
Thread count: 24 physical cores, 24 logical processors, using up to 24 threads

Optimize a model with 938 rows, 691 columns and 2356 nonzeros
Model fingerprint: 0x8407358e
Variable types: 491 continuous, 200 integer (100 binary)
Coefficient statistics:
  Matrix range     [1e+00, 1e+02]
  Objective range  [1e-05, 5e-01]
  Bounds range     [1e-03, 1e+00]
  RHS range        [1e-04, 8e+00]
Presolve removed 416 rows and 290 columns
Presolve time: 0.01s
Presolved: 522 rows, 401 columns, 1512 nonzeros
Variable types: 237 continuous, 164 integer (76 binary)

Root relaxation: objective 9.910407e-01, 333 iterations, 0.01 seconds (0.00 work units)

    Nodes    |    Current Node    |     Objective Bounds      |     Work
 Expl Unexpl |  Obj  Depth IntInf | Incumbent    BestBd   Gap | It/Node Time

     0     0    0.99104    0   67          -    0.99104      -     -    0s
H    0     0                       0.0004200    0.99103      -     -    0s
     0     0    0.99006    0   55    0.00042    0.99006      -     -    0s
H    0     0                       0.0004400    0.98999      -     -    0s
H    0     0                       0.4998200    0.98999  98.1%     -    0s
     0     0    0.98990    0   54    0.49982    0.98990  98.1%     -    0s
     0     0    0.98990    0   63    0.49982    0.98990  98.1%     -    0s
H    0     0                       0.7497200    0.98990  32.0%     -    0s
     0     0    0.98868    0   60    0.74972    0.98868  31.9%     -    0s
     0     0    0.98868    0   60    0.74972    0.98868  31.9%     -    0s
     0     2    0.98868    0   60    0.74972    0.98868  31.9%     -    0s
H  141    70                       0.7497200    0.98447  31.3%  23.5    0s
H  143    70                       0.7497300    0.98447  31.3%  23.6    0s

Cutting planes:
  Learned: 6
  Gomory: 19
  Implied bound: 23
  MIR: 35
  Inf proof: 1
  Network: 1
  RLT: 6

Explored 643 nodes (11882 simplex iterations) in 0.65 seconds (0.19 work units)
Thread count was 24 (of 24 available processors)

Solution count 6: 0.74973 0.74972 0.74972 ... 0.00042
No other solutions better than 0.74973

Optimal solution found (tolerance 1.00e-05)
Best objective 7.497300000000e-01, best bound 7.497300000000e-01, gap 0.0000%
Warning: linear constraint 203 and linear constraint 204 have the same name "PathConstr3_nopl"

Gurobi 11.0.0 (linux64) logging started Sun Mar 24 23:27:39 2024

Set parameter LogFile to value "gurobi_out/log/Mar_24_image_resize_100_8.log"
Gurobi Optimizer version 11.0.0 build v11.0.0rc2 (linux64 - "CentOS Linux 7 (Core)")

CPU model: Intel Xeon E3-12xx v2 (Ivy Bridge), instruction set [SSE2|AVX]
Thread count: 24 physical cores, 24 logical processors, using up to 24 threads

Optimize a model with 938 rows, 691 columns and 2356 nonzeros
Model fingerprint: 0x8407358e
Variable types: 491 continuous, 200 integer (100 binary)
Coefficient statistics:
  Matrix range     [1e+00, 1e+02]
  Objective range  [1e-05, 5e-01]
  Bounds range     [1e-03, 1e+00]
  RHS range        [1e-04, 8e+00]
Presolve removed 416 rows and 290 columns
Presolve time: 0.01s
Presolved: 522 rows, 401 columns, 1512 nonzeros
Variable types: 237 continuous, 164 integer (76 binary)

Root relaxation: objective 9.910407e-01, 333 iterations, 0.01 seconds (0.00 work units)

    Nodes    |    Current Node    |     Objective Bounds      |     Work
 Expl Unexpl |  Obj  Depth IntInf | Incumbent    BestBd   Gap | It/Node Time

     0     0    0.99104    0   67          -    0.99104      -     -    0s
H    0     0                       0.0004200    0.99103      -     -    0s
     0     0    0.99006    0   55    0.00042    0.99006      -     -    0s
H    0     0                       0.0004400    0.98999      -     -    0s
H    0     0                       0.4998200    0.98999  98.1%     -    0s
     0     0    0.98990    0   54    0.49982    0.98990  98.1%     -    0s
     0     0    0.98990    0   63    0.49982    0.98990  98.1%     -    0s
H    0     0                       0.7497200    0.98990  32.0%     -    0s
     0     0    0.98868    0   60    0.74972    0.98868  31.9%     -    0s
     0     0    0.98868    0   60    0.74972    0.98868  31.9%     -    0s
     0     2    0.98868    0   60    0.74972    0.98868  31.9%     -    0s
H  141    70                       0.7497200    0.98447  31.3%  23.5    0s
H  143    70                       0.7497300    0.98447  31.3%  23.6    0s

Cutting planes:
  Learned: 6
  Gomory: 19
  Implied bound: 23
  MIR: 35
  Inf proof: 1
  Network: 1
  RLT: 6

Explored 643 nodes (11882 simplex iterations) in 0.63 seconds (0.19 work units)
Thread count was 24 (of 24 available processors)

Solution count 6: 0.74973 0.74972 0.74972 ... 0.00042
No other solutions better than 0.74973

Optimal solution found (tolerance 1.00e-05)
Best objective 7.497300000000e-01, best bound 7.497300000000e-01, gap 0.0000%
Warning: linear constraint 203 and linear constraint 204 have the same name "PathConstr3_nopl"
